unknown
(model
; cardinality of BoundSet is 3
(declare-sort BoundSet 0)
; rep: @uc_BoundSet_0
; rep: @uc_BoundSet_1
; rep: @uc_BoundSet_2
; cardinality of UnboundSet is 1
(declare-sort UnboundSet 0)
(declare-fun groundTerm_4 () UnboundSet)
(define-fun IsLargeGroup ((BOUND_VARIABLE_435 BoundSet)) Bool true)
(define-fun IsWalking ((BOUND_VARIABLE_435 BoundSet)) Bool true)
(define-fun IsInBusyCity ((BOUND_VARIABLE_442 BoundSet) (BOUND_VARIABLE_443 BoundSet)) Bool true)
(define-fun IsAtNight ((BOUND_VARIABLE_435 BoundSet)) Bool true)
(define-fun IsInCity ((BOUND_VARIABLE_442 BoundSet) (BOUND_VARIABLE_443 BoundSet)) Bool false)
)
sat
(model
; cardinality of BoundSet is 1
(declare-sort BoundSet 0)
; rep: @uc_BoundSet_0
; cardinality of UnboundSet is 1
(declare-sort UnboundSet 0)
(declare-fun groundTerm_6 () UnboundSet)
(define-fun IsLargeGroup ((BOUND_VARIABLE_477 BoundSet)) Bool true)
(define-fun IsWalking ((BOUND_VARIABLE_477 BoundSet)) Bool true)
(define-fun IsInBusyCity ((BOUND_VARIABLE_484 BoundSet) (BOUND_VARIABLE_485 BoundSet)) Bool true)
(define-fun IsAtNight ((BOUND_VARIABLE_477 BoundSet)) Bool true)
(define-fun IsInCity ((BOUND_VARIABLE_484 BoundSet) (BOUND_VARIABLE_485 BoundSet)) Bool false)
)
